H160 C120 S16
1.0
-4.706636 -5.464345 0.015594
-5.034213 5.633735 0.001942
0.085280 0.056588 -51.138796
C H C H C S H C H C S C H C H C H S C H C H C H C H C S H C H C H C H C H C H C H C H C H C S C S C H C H C H S C H C H C H C H C S C H C H C H C H C H C H C H C H C H C H C H C H C H C H C H C H C H C S C H C S H C H C S C H C S C H C H C H C H C H C H C H C H C S C H C S C H C S C S C H C H C H C H C H C H C H C H C H C H C H C H C H C H C H
5 1 1 2 1 1 1 1 2 1 1 1 2 1 1 2 2 1 2 2 1 1 1 2 2 2 1 1 2 3 1 1 3 1 2 1 2 1 2 1 2 1 2 1 5 3 1 1 1 4 1 1 1 1 3 1 2 2 1 1 1 2 2 2 1 1 1 2 4 2 1 4 1 2 1 4 1 2 1 2 1 2 1 2 1 5 3 2 1 2 1 2 1 2 1 2 1 5 1 2 3 1 1 1 1 1 1 1 1 1 1 2 1 2 1 3 1 1 3 1 2 1 2 1 2 1 2 1 2 1 4 3 1 1 1 1 1 2 1 2 1 1 1 6 1 1 3 1 4 1 2 1 2 1 2 1 2 1 2 1 2 1 2 1 2 1 2 1 2 1 2 1 11
direct
0.097076 0.019664 0.419565 C
0.079560 0.180449 0.405771 C
0.061577 -0.164153 0.407870 C
0.159987 0.054267 0.445240 C
0.128530 0.332031 0.420487 C
0.034151 0.184181 0.385474 H
0.026624 -0.173603 0.378350 C
0.183571 -0.233374 0.412390 H
-0.058626 -0.242116 0.417599 H
0.196571 -0.065442 0.466066 C
0.197061 0.282433 0.451258 S
0.129672 0.470326 0.414860 H
0.028954 -0.364032 0.368482 C
-0.109065 -0.128341 0.373753 H
0.134095 -0.082827 0.368015 H
0.295681 -0.020391 0.489021 C
0.106985 -0.293352 0.465459 S
-0.015491 -0.394270 0.339498 C
-0.070821 -0.455010 0.380072 H
0.168118 -0.403966 0.372592 H
0.300350 -0.169335 0.505525 C
0.363563 0.113745 0.493206 H
0.205108 -0.329488 0.495446 C
0.004617 -0.585226 0.331204 C
0.077898 -0.299092 0.327596 H
-0.158958 -0.365761 0.335342 H
0.397270 -0.205261 0.535597 S
0.209325 -0.478281 0.511977 C
-0.040000 -0.627732 0.302498 C
0.148798 -0.611371 0.335488 H
-0.086680 -0.679247 0.343566 H
0.307707 -0.433079 0.534995 C
0.141254 -0.612392 0.507810 H
-0.013438 -0.819094 0.295184 C
0.049619 -0.533584 0.289975 H
-0.185228 -0.605347 0.298126 H
0.343093 -0.552792 0.555890 C
-0.059059 -0.865009 0.266621 C
-0.101237 -0.912704 0.307995 H
0.132291 -0.839553 0.299430 H
0.404684 -0.518684 0.581640 C
0.306372 -0.780878 0.549763 S
-0.205175 -0.850777 0.261908 H
0.029847 -0.776022 0.253431 H
0.421757 -0.679789 0.595373 C
0.439151 -0.335136 0.593483 C
0.373519 -0.831116 0.580571 C
0.466307 -0.683989 0.615706 H
0.473683 -0.326241 0.623044 C
0.316830 -0.266341 0.588964 H
0.559259 -0.256431 0.583838 H
0.372206 -0.969504 0.586171 H
0.470097 -0.136154 0.633026 C
0.609724 -0.370796 0.627638 H
0.366669 -0.417892 0.633314 H
0.514730 -0.105851 0.662017 C
0.569165 -0.044373 0.621447 H
0.330526 -0.096963 0.628959 H
0.495168 0.085357 0.670284 C
0.658151 -0.134519 0.666146 H
0.421295 -0.200807 0.673941 H
0.539784 0.128197 0.698981 C
0.586770 0.178994 0.657902 H
0.351146 0.111922 0.665977 H
0.513315 0.319711 0.706240 C
0.450021 0.034283 0.711505 H
0.684957 0.105760 0.703380 H
0.559323 0.366331 0.734763 C
0.367544 0.340133 0.701999 H
0.601025 0.413064 0.693378 H
0.470188 0.278204 0.748035 H
0.705316 0.351678 0.739485 H
0.538465 0.504353 0.739341 H
0.872221 0.956361 0.554354 C
0.831351 1.073930 0.533479 C
0.904748 0.987758 0.581083 C
0.886010 0.734330 0.546774 S
0.818429 1.032792 0.506922 C
0.779416 1.291281 0.539477 S
0.940278 0.830064 0.594423 C
0.907049 1.166748 0.593866 C
0.934690 0.683450 0.578328 C
0.764330 1.174537 0.491955 C
0.848830 0.906299 0.498930 H
0.736550 1.325828 0.506822 C
0.968909 0.824827 0.615303 H
0.961367 1.177475 0.622798 C
0.768635 1.212537 0.591540 H
1.005686 1.264151 0.583069 H
0.956112 0.548136 0.583253 H
0.721400 1.209146 0.459307 S
0.682371 1.467576 0.491867 C
0.963916 1.368118 0.632741 C
1.100335 1.134314 0.625497 H
0.862368 1.085850 0.634392 H
0.669578 1.426548 0.465311 C
0.651541 1.593908 0.499867 H
1.011771 1.397751 0.661626 C
0.826292 1.411973 0.628794 H
1.065189 1.456708 0.621029 H
0.628338 1.544311 0.444488 C
0.996675 1.589701 0.669889 C
0.917547 1.304501 0.673699 H
1.154509 1.366141 0.665504 H
0.594074 1.512804 0.417804 C
0.615521 1.766532 0.452096 S
1.041728 1.631683 0.698582 C
1.089830 1.681832 0.657490 H
0.853551 1.618889 0.665590 H
0.590568 1.333461 0.405080 C
0.558452 1.670533 0.404492 C
0.565520 1.817347 0.420576 C
1.015181 1.823001 0.705900 C
1.186926 1.609069 0.702927 H
0.951947 1.537546 0.711085 H
0.535471 1.322118 0.376184 C
0.728890 1.287293 0.407337 H
0.492056 1.236506 0.415969 H
0.528919 1.675686 0.383634 H
0.544360 1.952739 0.415658 H
1.060814 1.868567 0.734456 C
0.869416 1.843309 0.701641 H
1.102920 1.916668 0.693089 H
0.535009 1.131707 0.366234 C
0.633166 1.414627 0.364530 H
0.395711 1.363706 0.373553 H
1.207212 1.855318 0.739107 H
0.972821 1.778547 0.747617 H
0.486945 1.101498 0.337371 C
0.673435 1.089387 0.370119 H
0.434889 1.042098 0.377972 H
0.501908 0.909327 0.329196 C
0.581005 1.194471 0.325238 H
0.344160 1.132904 0.333498 H
0.457262 0.867285 0.300490 C
0.644906 0.879947 0.333543 H
0.408369 0.817473 0.341582 H
0.484061 0.676069 0.293134 C
0.312114 0.889827 0.296096 H
0.547168 0.961525 0.288025 H
0.438341 0.630560 0.264576 C
0.629922 0.655904 0.297373 H
0.396479 0.582176 0.305933 H
0.292029 0.644152 0.259915 H
0.460584 0.493194 0.259823 H
0.526586 0.720241 0.251399 H
0.994973 0.084959 0.831719 C
1.015321 -0.106145 0.839915 C
1.039279 0.127662 0.803070 C
0.850841 0.111006 0.835895 H
1.086415 0.178828 0.844204 H
0.971367 -0.137076 0.868848 C
1.158752 -0.134471 0.835851 H
0.921782 -0.201100 0.827880 H
1.012879 0.319085 0.795757 C
1.184438 0.105160 0.798840 H
0.949498 0.033594 0.790442 H
0.973764 -0.327695 0.878621 C
1.071363 -0.046390 0.880577 H
0.832307 -0.097150 0.872881 H
1.059430 0.365180 0.767292 C
1.100334 0.412592 0.808740 H
0.867051 0.339557 0.799765 H
0.939066 -0.337284 0.908110 C
0.866188 -0.418359 0.868150 H
1.109421 -0.372894 0.874142 H
0.970934 0.276334 0.753921 H
1.205648 0.350793 0.762841 H
1.038230 0.502994 0.762601 H
0.903800 -0.520941 0.919801 C
0.817107 -0.268060 0.912524 H
1.059320 -0.259204 0.917963 H
0.841261 -0.555086 0.945423 C
0.921324 -0.681918 0.906060 C
0.804466 -0.434914 0.966148 C
0.804579 -0.783134 0.951462 S
0.872788 -0.833236 0.920767 C
0.966550 -0.685964 0.885811 H
0.705319 -0.479483 0.988990 C
0.893783 -0.206975 0.965563 S
0.871918 -0.971620 0.915185 H
0.700234 -0.330142 1.005414 C
0.637604 -0.613575 0.993135 H
0.795260 -0.170177 0.995390 C
0.603060 -0.293599 1.035333 S
0.790680 -0.020969 1.011842 C
0.692371 -0.065699 1.034754 C
0.858540 0.113091 1.007711 H
0.656818 0.054516 1.055538 C
0.595304 0.020599 1.081216 C
0.693130 0.282473 1.049425 S
0.578042 0.181749 1.094926 C
0.560696 -0.163036 1.092927 C
0.625945 0.332882 1.080154 C
0.533501 0.186096 1.115207 H
0.526136 -0.172578 1.122426 C
0.682892 -0.231918 1.088502 H
0.440516 -0.241440 1.083103 H
0.626961 0.471324 1.085728 H
0.529233 -0.363028 1.132239 C
0.390205 -0.127893 1.126903 H
0.633288 -0.081417 1.132889 H
0.484772 -0.393944 1.161161 C
0.668623 -0.402476 1.128279 H
0.429823 -0.454181 1.120493 H
0.504052 -0.585329 1.169341 C
0.578390 -0.299335 1.173236 H
0.341456 -0.365113 1.165173 H
0.459817 -0.628325 1.197980 C
0.412068 -0.678675 1.156848 H
0.647918 -0.612117 1.165141 H
0.486074 -0.819973 1.205182 C
0.549810 -0.534628 1.210625 H
0.314740 -0.605781 1.202259 H
0.439738 -0.866712 1.233636 C
0.631855 -0.840465 1.201125 H
0.398380 -0.913121 1.192177 H
0.293655 -0.852089 1.238148 H
0.528629 -0.778566 1.247050 H
0.236913 0.325907 0.991787 C
0.183190 0.467991 1.006666 C
0.263410 0.174411 1.006697 C
0.280569 0.291019 0.959216 S
0.169334 0.426935 1.033192 C
0.153555 0.594674 0.998635 H
0.317338 0.032346 0.991832 C
0.219891 0.209205 1.039275 S
0.331126 0.073293 0.965304 C
0.128220 0.544697 1.053993 C
0.347240 -0.094183 0.999881 H
0.372377 -0.044847 0.944565 C
0.094948 0.513358 1.080663 C
0.114652 0.766718 1.046409 S
0.406794 -0.013760 0.917922 C
0.385354 -0.266871 0.952244 S
0.058921 0.670973 1.093955 C
0.092523 0.334402 1.093410 C
0.064999 0.817576 1.077878 C
0.410188 0.165462 0.905203 C
0.442734 -0.171650 0.904698 C
0.435697 -0.318166 0.920807 C
0.029611 0.676164 1.114784 H
0.038409 0.323427 1.122275 C
0.230840 0.288449 1.091211 H
-0.006247 0.237074 1.082491 H
0.043294 0.952859 1.082767 H
0.464903 0.176811 0.876362 C
0.271923 0.211676 0.907350 H
0.508854 0.262452 0.916195 H
0.472545 -0.177105 0.883885 H
0.457136 -0.453594 0.915961 H
0.035494 0.132470 1.132057 C
0.137622 0.414631 1.134026 H
-0.100438 0.366742 1.124865 H
0.465652 0.367409 0.866511 C
0.366900 0.084533 0.864594 H
0.604519 0.134995 0.873849 H
-0.012030 0.102047 1.160863 C
0.172925 0.088412 1.128188 H
-0.066112 0.044463 1.120184 H
0.513055 0.397995 0.837698 C
0.327453 0.409981 0.870333 H
0.566200 0.456612 0.878373 H
0.002827 -0.090193 1.168968 C
0.082443 0.194766 1.173102 H
-0.154659 0.133712 1.164653 H
0.497990 0.590297 0.829613 C
0.418652 0.305227 0.825461 H
0.655721 0.366567 0.833904 H
-0.042103 -0.132444 1.197591 C
-0.090565 -0.181916 1.156424 H
0.145855 -0.119496 1.164788 H
0.542298 0.632615 0.800976 C
0.591726 0.681936 0.842127 H
0.355075 0.619650 0.833861 H
-0.015770 -0.323732 1.204938 C
-0.187244 -0.109688 1.201783 H
0.047737 -0.038362 1.210213 H
0.515499 0.823871 0.793661 C
0.452294 0.538475 0.788396 H
0.687410 0.610098 0.796715 H
-0.061756 -0.368723 1.233447 C
0.130011 -0.344226 1.200891 H
-0.103486 -0.417505 1.192027 H
0.561919 0.869670 0.765196 C
0.369531 0.843923 0.797687 H
0.602781 0.917621 0.806631 H
-0.039457 -0.505974 1.238298 H
-0.208140 -0.355075 1.237885 H
0.026220 -0.278546 1.246707 H
0.539851 1.007090 0.760453 H
0.474046 0.780145 0.751841 H
0.708340 0.856078 0.760778 H
0.038165 0.005839 0.739222 H
0.962463 0.997241 0.261942 H
0.460551 0.995258 0.238225 H
